NAME : susy-integer.-434465.tour
COMMENT : Length = -434465
COMMENT : Found by LKH [Keld Helsgaun] Wed May 19 15:00:07 2021
TYPE : TOUR
DIMENSION : 18
TOUR_SECTION
1
11
15
4
13
5
8
18
6
2
14
16
12
10
7
9
3
17
-1
EOF
